NAME: random-37-5588
TYPE: TSP
COMMENT: size=37 seed=5588
DIMENSION: 76
EDGE_WEIGHT_TYPE: EUC_2D
NODE_COORD_SECTION
+0 516 867
-0 516 867
+1 721 655
-1 358 193
+2 359 611
-2 199 426
+3 275 825
-3 550 291
+4 26 831
-4 46 525
+5 360 833
-5 615 563
+6 264 836
-6 301 326
+7 180 34
-7 394 115
+8 554 541
-8 169 606
+9 507 390
-9 13 221
+10 736 106
-10 498 345
+11 100 378
-11 801 387
+12 691 530
-12 487 121
+13 88 280
-13 255 410
+14 366 896
-14 880 278
+15 951 715
-15 217 158
+16 77 844
-16 387 875
+17 552 40
-17 565 366
+18 824 62
-18 500 667
+19 118 655
-19 915 331
+20 245 372
-20 916 579
+21 399 161
-21 982 261
+22 340 869
-22 503 307
+23 173 20
-23 135 439
+24 614 962
-24 456 985
+25 294 178
-25 360 452
+26 430 986
-26 575 388
+27 930 657
-27 406 721
+28 7 781
-28 703 89
+29 372 976
-29 713 240
+30 204 18
-30 920 899
+31 210 182
-31 164 660
+32 58 878
-32 364 599
+33 736 847
-33 711 346
+34 236 528
-34 741 713
+35 761 942
-35 715 447
+36 590 772
-36 896 320
+37 4 865
-37 865 234
PRECEDENCE_SECTION
+0 -0
+1 -1
+2 -2
+3 -3
+4 -4
+5 -5
+6 -6
+7 -7
+8 -8
+9 -9
+10 -10
+11 -11
+12 -12
+13 -13
+14 -14
+15 -15
+16 -16
+17 -17
+18 -18
+19 -19
+20 -20
+21 -21
+22 -22
+23 -23
+24 -24
+25 -25
+26 -26
+27 -27
+28 -28
+29 -29
+30 -30
+31 -31
+32 -32
+33 -33
+34 -34
+35 -35
+36 -36
+37 -37
EOF
